set VV := 0 1 2 3 4 5 6 7 8 9 10 11 12 13 14 15 16 17 18 19 ;
set VS := 0 1 2 3 4 5 6 7 8 9 10 11 12 13 14 15 16 17 18 19 20 21 22 23 24 25 26 27 28 29 30 31 32 33 34 35 36 37 38 39 40 41 42 43 ;
param cv := 
0 18
1 20
2 25
3 25
4 10
5 17
6 22
7 21
8 15
9 20
10 21
11 14
12 12
13 13
14 21
15 25
16 15
17 23
18 24
19 15
;
param cs := 
0 31
1 26
2 31
3 26
4 39
5 20
6 34
7 23
8 40
9 26
10 38
11 31
12 31
13 22
14 27
15 31
16 29
17 22
18 20
19 33
20 34
21 40
22 31
23 24
24 27
25 29
26 32
27 25
28 24
29 20
30 38
31 27
32 31
33 22
34 34
35 40
36 21
37 39
38 20
39 21
40 39
41 34
42 35
43 32
;
param bv:	 0 1 2 3 4 5 6 7 8 9 10 11 12 13 14 15 16 17 18 19 := 
		0 0 0 0 0 0 0 0 0 0 23 0 0 0 0 0 0 0 0 0 0 
		1 0 0 0 0 0 0 0 0 23 0 0 0 0 0 0 0 0 0 0 0 
		2 0 0 0 0 0 0 0 0 12 0 0 0 0 0 0 12 0 0 0 0 
		3 0 0 0 0 0 13 0 0 0 0 0 0 0 0 0 0 0 0 0 0 
		4 0 0 0 0 0 0 0 0 0 0 0 0 0 0 13 0 0 0 0 0 
		5 0 0 0 0 0 0 0 13 0 0 0 0 24 0 0 0 0 0 0 0 
		6 0 0 0 0 0 0 0 0 0 0 0 0 0 0 0 25 0 0 0 0 
		7 0 0 0 0 0 0 0 0 0 0 0 0 0 25 21 0 0 0 0 0 
		8 0 0 0 0 0 0 0 0 0 0 10 25 0 0 0 0 0 0 0 0 
		9 0 0 0 0 0 0 0 0 0 0 0 0 0 0 0 13 0 0 0 0 
		10 0 0 0 0 0 0 0 0 0 0 0 0 0 0 24 0 0 0 14 10 
		11 0 0 0 0 0 0 0 0 0 0 0 0 0 0 22 0 0 0 0 0 
		12 0 0 0 0 0 0 0 0 0 0 0 0 0 0 0 0 0 0 0 18 
		13 0 0 0 0 0 0 0 0 0 0 0 0 0 0 12 0 0 16 13 0 
		14 0 0 0 0 0 0 0 0 0 0 0 0 0 0 0 0 0 0 0 23 
		15 0 0 0 0 0 0 0 0 0 0 0 0 0 0 0 0 15 0 0 0 
		16 0 0 0 0 0 0 0 0 0 0 0 0 0 0 0 0 0 0 0 0 
		17 0 0 0 0 0 0 0 0 0 0 0 0 0 0 0 0 0 0 0 22 
		18 0 0 0 0 0 0 0 0 0 0 0 0 0 0 0 0 0 0 0 0 
		19 0 0 0 0 0 0 0 0 0 0 0 0 0 0 0 0 0 0 0 0 
;
param bs:	 0 1 2 3 4 5 6 7 8 9 10 11 12 13 14 15 16 17 18 19 20 21 22 23 24 25 26 27 28 29 30 31 32 33 34 35 36 37 38 39 40 41 42 43 := 
		0 0 0 0 0 20 0 0 0 0 23 0 0 0 0 0 25 0 0 0 0 0 0 0 40 0 0 0 0 0 0 0 0 27 0 0 0 0 0 0 0 0 0 0 0 
		1 0 0 0 0 0 0 0 0 0 0 0 0 0 0 0 0 0 0 0 23 0 0 0 0 0 0 0 0 0 0 0 0 0 0 0 0 0 0 0 0 0 0 0 29 
		2 0 0 0 0 0 0 0 0 0 0 0 0 0 0 0 0 0 0 0 0 0 0 0 32 0 0 31 30 0 0 0 0 0 0 0 0 0 0 0 0 0 26 0 0 
		3 0 0 0 0 0 0 0 0 0 0 0 30 0 34 0 0 0 35 0 30 0 0 0 0 0 26 0 0 0 0 0 0 0 0 0 0 0 0 0 0 0 0 0 0 
		4 20 0 0 0 0 0 38 0 0 0 27 0 0 0 0 0 0 0 0 0 0 0 0 0 0 0 0 0 0 20 29 25 0 0 0 0 20 0 0 0 0 0 0 0 
		5 0 0 0 0 0 0 0 0 0 0 0 0 40 0 37 0 0 0 0 0 0 0 0 0 0 0 0 0 0 0 22 0 0 22 0 0 0 0 0 0 0 23 0 0 
		6 0 0 0 0 38 0 0 0 0 23 0 0 0 0 0 0 0 0 0 0 0 0 0 0 0 0 0 0 0 0 0 0 25 0 0 0 0 0 0 0 40 0 0 0 
		7 0 0 0 0 0 0 0 0 0 0 0 0 0 0 0 0 0 0 0 0 37 0 0 35 25 34 0 0 27 0 0 0 24 0 0 0 34 0 0 0 0 0 0 0 
		8 0 0 0 0 0 0 0 0 0 35 0 0 0 0 0 0 0 24 0 0 0 0 0 0 24 0 0 31 0 0 0 0 0 0 0 0 0 0 0 0 0 0 0 38 
		9 23 0 0 0 0 0 23 0 35 0 0 0 0 32 0 0 0 26 0 35 0 0 0 0 0 25 0 0 0 0 0 0 0 0 0 0 0 0 0 0 39 0 0 0 
		10 0 0 0 0 27 0 0 0 0 0 0 0 0 0 0 0 0 0 0 0 0 0 0 0 0 0 0 0 0 0 0 0 0 0 0 0 0 0 0 0 0 0 0 0 
		11 0 0 0 30 0 0 0 0 0 0 0 0 0 0 0 0 0 0 0 0 22 0 0 0 0 0 0 0 35 0 0 0 0 0 0 0 37 0 0 0 37 0 0 0 
		12 0 0 0 0 0 40 0 0 0 0 0 0 0 0 23 0 30 0 31 0 0 0 0 0 0 30 0 0 0 30 0 32 0 30 0 30 0 0 36 0 0 33 0 0 
		13 0 0 0 34 0 0 0 0 0 32 0 0 0 0 0 0 0 0 0 0 0 0 0 0 0 0 0 0 0 0 0 0 0 0 0 0 0 0 0 0 0 0 0 0 
		14 0 0 0 0 0 37 0 0 0 0 0 0 23 0 0 0 0 0 0 0 0 0 0 0 0 0 21 0 0 0 36 0 0 36 0 29 0 0 38 0 0 0 0 0 
		15 25 0 0 0 0 0 0 0 0 0 0 0 0 0 0 0 0 0 0 0 0 0 0 0 0 0 0 0 0 0 0 0 0 0 0 0 0 0 0 0 0 0 0 0 
		16 0 0 0 0 0 0 0 0 0 0 0 0 30 0 0 0 0 0 0 0 0 0 0 0 23 0 0 38 0 0 34 0 0 0 0 0 25 0 0 0 0 0 24 0 
		17 0 0 0 35 0 0 0 0 24 26 0 0 0 0 0 0 0 0 0 0 0 0 0 0 0 0 0 0 0 24 0 0 0 0 0 0 0 0 0 0 0 33 0 0 
		18 0 0 0 0 0 0 0 0 0 0 0 0 31 0 0 0 0 0 0 0 0 0 0 0 0 0 0 0 0 0 0 0 0 0 0 0 0 0 0 0 0 0 0 0 
		19 0 23 0 30 0 0 0 0 0 35 0 0 0 0 0 0 0 0 0 0 0 0 0 0 0 0 0 0 0 0 0 0 0 0 0 0 0 0 0 0 36 0 0 0 
		20 0 0 0 0 0 0 0 37 0 0 0 22 0 0 0 0 0 0 0 0 0 0 31 0 0 0 0 30 0 0 0 0 20 0 27 0 0 0 0 0 32 22 0 0 
		21 0 0 0 0 0 0 0 0 0 0 0 0 0 0 0 0 0 0 0 0 0 0 0 29 32 0 0 0 0 0 0 25 25 0 0 0 36 0 0 0 0 0 0 0 
		22 0 0 0 0 0 0 0 0 0 0 0 0 0 0 0 0 0 0 0 0 31 0 0 0 37 0 0 0 0 0 0 0 0 0 0 0 35 0 33 0 0 0 0 0 
		23 40 0 32 0 0 0 0 35 0 0 0 0 0 0 0 0 0 0 0 0 0 29 0 0 0 0 0 0 0 0 0 0 0 0 20 0 38 0 32 0 0 33 33 0 
		24 0 0 0 0 0 0 0 25 24 0 0 0 0 0 0 0 23 0 0 0 0 32 37 0 0 0 0 0 0 0 0 26 0 0 0 0 40 0 0 0 0 0 35 0 
		25 0 0 0 26 0 0 0 34 0 25 0 0 30 0 0 0 0 0 0 0 0 0 0 0 0 0 0 0 0 0 0 0 0 0 0 0 0 0 0 0 20 0 0 0 
		26 0 0 31 0 0 0 0 0 0 0 0 0 0 0 21 0 0 0 0 0 0 0 0 0 0 0 0 26 0 0 0 0 0 0 0 0 0 0 0 0 0 0 0 0 
		27 0 0 30 0 0 0 0 0 31 0 0 0 0 0 0 0 38 0 0 0 30 0 0 0 0 0 26 0 0 0 0 0 0 0 0 0 0 0 0 0 0 0 0 0 
		28 0 0 0 0 0 0 0 27 0 0 0 35 0 0 0 0 0 0 0 0 0 0 0 0 0 0 0 0 0 0 0 0 0 0 0 0 20 0 0 0 0 0 0 0 
		29 0 0 0 0 20 0 0 0 0 0 0 0 30 0 0 0 0 24 0 0 0 0 0 0 0 0 0 0 0 0 0 0 0 0 0 0 0 35 0 0 0 0 0 37 
		30 0 0 0 0 29 22 0 0 0 0 0 0 0 0 36 0 34 0 0 0 0 0 0 0 0 0 0 0 0 0 0 0 0 0 0 0 0 0 0 0 0 0 0 0 
		31 0 0 0 0 25 0 0 0 0 0 0 0 32 0 0 0 0 0 0 0 0 25 0 0 26 0 0 0 0 0 0 0 0 0 0 26 27 0 33 0 0 29 0 25 
		32 27 0 0 0 0 0 25 24 0 0 0 0 0 0 0 0 0 0 0 0 20 25 0 0 0 0 0 0 0 0 0 0 0 0 0 0 0 0 0 0 0 0 0 0 
		33 0 0 0 0 0 22 0 0 0 0 0 0 30 0 36 0 0 0 0 0 0 0 0 0 0 0 0 0 0 0 0 0 0 0 0 0 27 32 0 0 0 0 0 0 
		34 0 0 0 0 0 0 0 0 0 0 0 0 0 0 0 0 0 0 0 0 27 0 0 20 0 0 0 0 0 0 0 0 0 0 0 0 0 33 0 0 0 0 0 0 
		35 0 0 0 0 0 0 0 0 0 0 0 0 30 0 29 0 0 0 0 0 0 0 0 0 0 0 0 0 0 0 0 26 0 0 0 0 0 0 25 0 0 0 0 0 
		36 0 0 0 0 20 0 0 34 0 0 0 37 0 0 0 0 25 0 0 0 0 36 35 38 40 0 0 0 20 0 0 27 0 27 0 0 0 0 0 0 0 0 0 0 
		37 0 0 0 0 0 0 0 0 0 0 0 0 0 0 0 0 0 0 0 0 0 0 0 0 0 0 0 0 0 35 0 0 0 32 33 0 0 0 0 0 0 21 0 0 
		38 0 0 0 0 0 0 0 0 0 0 0 0 36 0 38 0 0 0 0 0 0 0 33 32 0 0 0 0 0 0 0 33 0 0 0 25 0 0 0 0 0 0 39 0 
		39 0 0 0 0 0 0 0 0 0 0 0 0 0 0 0 0 0 0 0 0 0 0 0 0 0 0 0 0 0 0 0 0 0 0 0 0 0 0 0 0 0 0 33 0 
		40 0 0 0 0 0 0 40 0 0 39 0 37 0 0 0 0 0 0 0 36 32 0 0 0 0 20 0 0 0 0 0 0 0 0 0 0 0 0 0 0 0 0 0 0 
		41 0 0 26 0 0 23 0 0 0 0 0 0 33 0 0 0 0 33 0 0 22 0 0 33 0 0 0 0 0 0 0 29 0 0 0 0 0 21 0 0 0 0 0 0 
		42 0 0 0 0 0 0 0 0 0 0 0 0 0 0 0 0 24 0 0 0 0 0 0 33 35 0 0 0 0 0 0 0 0 0 0 0 0 0 39 33 0 0 0 0 
		43 0 29 0 0 0 0 0 0 38 0 0 0 0 0 0 0 0 0 0 0 0 0 0 0 0 0 0 0 0 37 0 25 0 0 0 0 0 0 0 0 0 0 0 0 
;
